\ Model idol-model
\ LP format - for model browsing. Use MPS format to capture full model detail.
\ Signature: 0xdc24838a28a82818
Minimize
  a_1 + a_2 + a_3 + a_4 + a_5 + a_6 + a_8 + a_9 + a_10 + a_11 + a_12 + a_13
   + a_14 + a_15 + a_16 + a_17 + a_18 + a_19 + a_20 + a_21 + a_22 + a_23
   + a_24 + a_25 + a_26 + a_27 + a_28 + a_29 + a_30 + a_31 + a_32 + a_33
   + a_34 + a_35 + a_36 + a_37 + a_38 + a_39 + a_40 + a_41 + a_42 + a_43
   + a_44 + a_45 + a_46 + a_47 + a_48 + a_49 + a_50
Subject To
 Phi: y_1 + y_2 + y_3 + y_4 + y_5 + y_6 + y_8 + y_9 + y_10 + y_11 + y_12
   + y_13 + y_14 + y_15 + y_16 + y_17 + y_18 + y_19 + y_20 + y_21 + y_22
   + y_23 + y_24 + y_25 + y_26 + y_27 + y_28 + y_29 + y_30 + y_31 + y_32
   + y_33 + y_34 + y_35 + y_36 + y_37 + y_38 + y_39 + y_40 + y_41 + y_42
   + y_43 + y_44 + y_45 + y_46 + y_47 + y_48 + y_49 + y_50 <= 3
 Lambda: x_1 + x_2 + x_3 + x_4 + x_5 + x_6 + x_8 + x_9 + x_10 + x_11 + x_12
   + x_13 + x_14 + x_15 + x_16 + x_17 + x_18 + x_19 + x_20 + x_21 + x_22
   + x_23 + x_24 + x_25 + x_26 + x_27 + x_28 + x_29 + x_30 + x_31 + x_32
   + x_33 + x_34 + x_35 + x_36 + x_37 + x_38 + x_39 + x_40 + x_41 + x_42
   + x_43 + x_44 + x_45 + x_46 + x_47 + x_48 + x_49 + x_50 <= 3
 V1: a_1 + y_1 <= 1
 V2: a_2 + y_2 <= 1
 V3: a_3 + y_3 <= 1
 V4: a_4 + y_4 <= 1
 V5: a_5 + y_5 <= 1
 V6: a_6 + y_6 <= 1
 V8: a_8 + y_8 <= 1
 V9: a_9 + y_9 <= 1
 V10: a_10 + y_10 <= 1
 V11: a_11 + y_11 <= 1
 V12: a_12 + y_12 <= 1
 V13: a_13 + y_13 <= 1
 V14: a_14 + y_14 <= 1
 V15: a_15 + y_15 <= 1
 V16: a_16 + y_16 <= 1
 V17: a_17 + y_17 <= 1
 V18: a_18 + y_18 <= 1
 V19: a_19 + y_19 <= 1
 V20: a_20 + y_20 <= 1
 V21: a_21 + y_21 <= 1
 V22: a_22 + y_22 <= 1
 V23: a_23 + y_23 <= 1
 V24: a_24 + y_24 <= 1
 V25: a_25 + y_25 <= 1
 V26: a_26 + y_26 <= 1
 V27: a_27 + y_27 <= 1
 V28: a_28 + y_28 <= 1
 V29: a_29 + y_29 <= 1
 V30: a_30 + y_30 <= 1
 V31: a_31 + y_31 <= 1
 V32: a_32 + y_32 <= 1
 V33: a_33 + y_33 <= 1
 V34: a_34 + y_34 <= 1
 V35: a_35 + y_35 <= 1
 V36: a_36 + y_36 <= 1
 V37: a_37 + y_37 <= 1
 V38: a_38 + y_38 <= 1
 V39: a_39 + y_39 <= 1
 V40: a_40 + y_40 <= 1
 V41: a_41 + y_41 <= 1
 V42: a_42 + y_42 <= 1
 V43: a_43 + y_43 <= 1
 V44: a_44 + y_44 <= 1
 V45: a_45 + y_45 <= 1
 V46: a_46 + y_46 <= 1
 V47: a_47 + y_47 <= 1
 V48: a_48 + y_48 <= 1
 V49: a_49 + y_49 <= 1
 V50: a_50 + y_50 <= 1
 A1-9: - a_1 + a_9 - x_9 <= 0
 A9-1: a_1 - a_9 - x_1 <= 0
 A1-12: - a_1 + a_12 - x_12 <= 0
 A12-1: a_1 - a_12 - x_1 <= 0
 A1-20: - a_1 + a_20 - x_20 <= 0
 A20-1: a_1 - a_20 - x_1 <= 0
 A1-42: - a_1 + a_42 - x_42 <= 0
 A42-1: a_1 - a_42 - x_1 <= 0
 A1-44: - a_1 + a_44 - x_44 <= 0
 A44-1: a_1 - a_44 - x_1 <= 0
 A2-9: - a_2 + a_9 - x_9 <= 0
 A9-2: a_2 - a_9 - x_2 <= 0
 A2-29: - a_2 + a_29 - x_29 <= 0
 A29-2: a_2 - a_29 - x_2 <= 0
 A2-40: - a_2 + a_40 - x_40 <= 0
 A40-2: a_2 - a_40 - x_2 <= 0
 A3-13: - a_3 + a_13 - x_13 <= 0
 A13-3: a_3 - a_13 - x_3 <= 0
 A3-31: - a_3 + a_31 - x_31 <= 0
 A31-3: a_3 - a_31 - x_3 <= 0
 A3-32: - a_3 + a_32 - x_32 <= 0
 A32-3: a_3 - a_32 - x_3 <= 0
 A3-47: - a_3 + a_47 - x_47 <= 0
 A47-3: a_3 - a_47 - x_3 <= 0
 A4-6: - a_4 + a_6 - x_6 <= 0
 A6-4: a_4 - a_6 - x_4 <= 0
 A4-22: - a_4 + a_22 - x_22 <= 0
 A22-4: a_4 - a_22 - x_4 <= 0
 A4-35: - a_4 + a_35 - x_35 <= 0
 A35-4: a_4 - a_35 - x_4 <= 0
 A5-17: - a_5 + a_17 - x_17 <= 0
 A17-5: a_5 - a_17 - x_5 <= 0
 A5-20: - a_5 + a_20 - x_20 <= 0
 A20-5: a_5 - a_20 - x_5 <= 0
 A5-45: - a_5 + a_45 - x_45 <= 0
 A45-5: a_5 - a_45 - x_5 <= 0
 A5-50: - a_5 + a_50 - x_50 <= 0
 A50-5: a_5 - a_50 - x_5 <= 0
 A6-17: - a_6 + a_17 - x_17 <= 0
 A17-6: a_6 - a_17 - x_6 <= 0
 A8-17: - a_8 + a_17 - x_17 <= 0
 A17-8: a_8 - a_17 - x_8 <= 0
 A8-25: - a_8 + a_25 - x_25 <= 0
 A25-8: a_8 - a_25 - x_8 <= 0
 A8-39: - a_8 + a_39 - x_39 <= 0
 A39-8: a_8 - a_39 - x_8 <= 0
 A9-13: - a_9 + a_13 - x_13 <= 0
 A13-9: a_9 - a_13 - x_9 <= 0
 A9-15: - a_9 + a_15 - x_15 <= 0
 A15-9: a_9 - a_15 - x_9 <= 0
 A10-18: - a_10 + a_18 - x_18 <= 0
 A18-10: a_10 - a_18 - x_10 <= 0
 A10-36: - a_10 + a_36 - x_36 <= 0
 A36-10: a_10 - a_36 - x_10 <= 0
 A11-17: - a_11 + a_17 - x_17 <= 0
 A17-11: a_11 - a_17 - x_11 <= 0
 A11-20: - a_11 + a_20 - x_20 <= 0
 A20-11: a_11 - a_20 - x_11 <= 0
 A11-25: - a_11 + a_25 - x_25 <= 0
 A25-11: a_11 - a_25 - x_11 <= 0
 A11-39: - a_11 + a_39 - x_39 <= 0
 A39-11: a_11 - a_39 - x_11 <= 0
 A12-23: - a_12 + a_23 - x_23 <= 0
 A23-12: a_12 - a_23 - x_12 <= 0
 A13-23: - a_13 + a_23 - x_23 <= 0
 A23-13: a_13 - a_23 - x_13 <= 0
 A13-24: - a_13 + a_24 - x_24 <= 0
 A24-13: a_13 - a_24 - x_13 <= 0
 A13-29: - a_13 + a_29 - x_29 <= 0
 A29-13: a_13 - a_29 - x_13 <= 0
 A13-31: - a_13 + a_31 - x_31 <= 0
 A31-13: a_13 - a_31 - x_13 <= 0
 A14-32: - a_14 + a_32 - x_32 <= 0
 A32-14: a_14 - a_32 - x_14 <= 0
 A14-36: - a_14 + a_36 - x_36 <= 0
 A36-14: a_14 - a_36 - x_14 <= 0
 A14-41: - a_14 + a_41 - x_41 <= 0
 A41-14: a_14 - a_41 - x_14 <= 0
 A15-16: - a_15 + a_16 - x_16 <= 0
 A16-15: a_15 - a_16 - x_15 <= 0
 A15-19: - a_15 + a_19 - x_19 <= 0
 A19-15: a_15 - a_19 - x_15 <= 0
 A15-42: - a_15 + a_42 - x_42 <= 0
 A42-15: a_15 - a_42 - x_15 <= 0
 A15-46: - a_15 + a_46 - x_46 <= 0
 A46-15: a_15 - a_46 - x_15 <= 0
 A16-40: - a_16 + a_40 - x_40 <= 0
 A40-16: a_16 - a_40 - x_16 <= 0
 A17-18: - a_17 + a_18 - x_18 <= 0
 A18-17: a_17 - a_18 - x_17 <= 0
 A17-24: - a_17 + a_24 - x_24 <= 0
 A24-17: a_17 - a_24 - x_17 <= 0
 A17-32: - a_17 + a_32 - x_32 <= 0
 A32-17: a_17 - a_32 - x_17 <= 0
 A18-35: - a_18 + a_35 - x_35 <= 0
 A35-18: a_18 - a_35 - x_18 <= 0
 A19-30: - a_19 + a_30 - x_30 <= 0
 A30-19: a_19 - a_30 - x_19 <= 0
 A19-32: - a_19 + a_32 - x_32 <= 0
 A32-19: a_19 - a_32 - x_19 <= 0
 A19-39: - a_19 + a_39 - x_39 <= 0
 A39-19: a_19 - a_39 - x_19 <= 0
 A19-41: - a_19 + a_41 - x_41 <= 0
 A41-19: a_19 - a_41 - x_19 <= 0
 A21-22: - a_21 + a_22 - x_22 <= 0
 A22-21: a_21 - a_22 - x_21 <= 0
 A21-39: - a_21 + a_39 - x_39 <= 0
 A39-21: a_21 - a_39 - x_21 <= 0
 A22-35: - a_22 + a_35 - x_35 <= 0
 A35-22: a_22 - a_35 - x_22 <= 0
 A22-38: - a_22 + a_38 - x_38 <= 0
 A38-22: a_22 - a_38 - x_22 <= 0
 A23-32: - a_23 + a_32 - x_32 <= 0
 A32-23: a_23 - a_32 - x_23 <= 0
 A23-49: - a_23 + a_49 - x_49 <= 0
 A49-23: a_23 - a_49 - x_23 <= 0
 A23-50: - a_23 + a_50 - x_50 <= 0
 A50-23: a_23 - a_50 - x_23 <= 0
 A25-28: - a_25 + a_28 - x_28 <= 0
 A28-25: a_25 - a_28 - x_25 <= 0
 A25-48: - a_25 + a_48 - x_48 <= 0
 A48-25: a_25 - a_48 - x_25 <= 0
 A25-49: - a_25 + a_49 - x_49 <= 0
 A49-25: a_25 - a_49 - x_25 <= 0
 A27-45: - a_27 + a_45 - x_45 <= 0
 A45-27: a_27 - a_45 - x_27 <= 0
 A27-47: - a_27 + a_47 - x_47 <= 0
 A47-27: a_27 - a_47 - x_27 <= 0
 A29-35: - a_29 + a_35 - x_35 <= 0
 A35-29: a_29 - a_35 - x_29 <= 0
 A29-40: - a_29 + a_40 - x_40 <= 0
 A40-29: a_29 - a_40 - x_29 <= 0
 A29-41: - a_29 + a_41 - x_41 <= 0
 A41-29: a_29 - a_41 - x_29 <= 0
 A30-39: - a_30 + a_39 - x_39 <= 0
 A39-30: a_30 - a_39 - x_30 <= 0
 A30-46: - a_30 + a_46 - x_46 <= 0
 A46-30: a_30 - a_46 - x_30 <= 0
 A30-49: - a_30 + a_49 - x_49 <= 0
 A49-30: a_30 - a_49 - x_30 <= 0
 A31-36: - a_31 + a_36 - x_36 <= 0
 A36-31: a_31 - a_36 - x_31 <= 0
 A31-39: - a_31 + a_39 - x_39 <= 0
 A39-31: a_31 - a_39 - x_31 <= 0
 A32-40: - a_32 + a_40 - x_40 <= 0
 A40-32: a_32 - a_40 - x_32 <= 0
 A32-46: - a_32 + a_46 - x_46 <= 0
 A46-32: a_32 - a_46 - x_32 <= 0
 A33-35: - a_33 + a_35 - x_35 <= 0
 A35-33: a_33 - a_35 - x_33 <= 0
 A34-41: - a_34 + a_41 - x_41 <= 0
 A41-34: a_34 - a_41 - x_34 <= 0
 A35-41: - a_35 + a_41 - x_41 <= 0
 A41-35: a_35 - a_41 - x_35 <= 0
 A35-44: - a_35 + a_44 - x_44 <= 0
 A44-35: a_35 - a_44 - x_35 <= 0
 A35-46: - a_35 + a_46 - x_46 <= 0
 A46-35: a_35 - a_46 - x_35 <= 0
 A39-40: - a_39 + a_40 - x_40 <= 0
 A40-39: a_39 - a_40 - x_39 <= 0
 A39-44: - a_39 + a_44 - x_44 <= 0
 A44-39: a_39 - a_44 - x_39 <= 0
 A42-43: - a_42 + a_43 - x_43 <= 0
 A43-42: a_42 - a_43 - x_42 <= 0
 A44-46: - a_44 + a_46 - x_46 <= 0
 A46-44: a_44 - a_46 - x_44 <= 0
 A44-50: - a_44 + a_50 - x_50 <= 0
 A50-44: a_44 - a_50 - x_44 <= 0
 A46-47: - a_46 + a_47 - x_47 <= 0
 A47-46: a_46 - a_47 - x_46 <= 0
 c_466: - a_1 - a_2 - a_3 - a_4 - a_5 - a_6 - a_8 - a_9 - a_10 - a_11
   - a_12 - a_13 - a_14 - a_15 - a_16 - a_17 - a_18 - a_19 - a_20 - a_21
   - a_22 - a_23 - a_24 - a_25 - a_26 - a_27 - a_28 - a_29 - a_30 - a_31
   - a_32 - a_33 - a_34 - a_35 - a_36 - a_37 - a_38 - a_39 - a_40 - a_41
   - a_42 - a_43 - a_44 - a_45 - a_46 - a_47 - a_48 - a_49 - a_50 <= 0
Bounds
Binaries
 a_1 a_2 a_3 a_4 a_5 a_6 a_8 a_9 a_10 a_11 a_12 a_13 a_14 a_15 a_16 a_17
 a_18 a_19 a_20 a_21 a_22 a_23 a_24 a_25 a_26 a_27 a_28 a_29 a_30 a_31 a_32
 a_33 a_34 a_35 a_36 a_37 a_38 a_39 a_40 a_41 a_42 a_43 a_44 a_45 a_46 a_47
 a_48 a_49 a_50 y_1 y_2 y_3 y_4 y_5 y_6 y_8 y_9 y_10 y_11 y_12 y_13 y_14
 y_15 y_16 y_17 y_18 y_19 y_20 y_21 y_22 y_23 y_24 y_25 y_26 y_27 y_28 y_29
 y_30 y_31 y_32 y_33 y_34 y_35 y_36 y_37 y_38 y_39 y_40 y_41 y_42 y_43 y_44
 y_45 y_46 y_47 y_48 y_49 y_50 x_1 x_2 x_3 x_4 x_5 x_6 x_8 x_9 x_10 x_11
 x_12 x_13 x_14 x_15 x_16 x_17 x_18 x_19 x_20 x_21 x_22 x_23 x_24 x_25 x_26
 x_27 x_28 x_29 x_30 x_31 x_32 x_33 x_34 x_35 x_36 x_37 x_38 x_39 x_40 x_41
 x_42 x_43 x_44 x_45 x_46 x_47 x_48 x_49 x_50
End
